p cnf 125 881 
1 2 3 4 5 0
6 7 8 9 10 0
11 12 13 14 15 0
16 17 18 19 20 0
21 22 23 24 25 0
-1 -2 0
-1 -3 0
-1 -4 0
-1 -5 0
-2 -3 0
-2 -4 0
-2 -5 0
-3 -4 0
-3 -5 0
-4 -5 0
-6 -7 0
-6 -8 0
-6 -9 0
-6 -10 0
-7 -8 0
-7 -9 0
-7 -10 0
-8 -9 0
-8 -10 0
-9 -10 0
-11 -12 0
-11 -13 0
-11 -14 0
-11 -15 0
-12 -13 0
-12 -14 0
-12 -15 0
-13 -14 0
-13 -15 0
-14 -15 0
-16 -17 0
-16 -18 0
-16 -19 0
-16 -20 0
-17 -18 0
-17 -19 0
-17 -20 0
-18 -19 0
-18 -20 0
-19 -20 0
-21 -22 0
-21 -23 0
-21 -24 0
-21 -25 0
-22 -23 0
-22 -24 0
-22 -25 0
-23 -24 0
-23 -25 0
-24 -25 0
1 6 11 16 21 0
2 7 12 17 22 0
3 8 13 18 23 0
4 9 14 19 24 0
5 10 15 20 25 0
-1 -6 0
-1 -11 0
-1 -16 0
-1 -21 0
-6 -11 0
-6 -16 0
-6 -21 0
-11 -16 0
-11 -21 0
-16 -21 0
-2 -7 0
-2 -12 0
-2 -17 0
-2 -22 0
-7 -12 0
-7 -17 0
-7 -22 0
-12 -17 0
-12 -22 0
-17 -22 0
-3 -8 0
-3 -13 0
-3 -18 0
-3 -23 0
-8 -13 0
-8 -18 0
-8 -23 0
-13 -18 0
-13 -23 0
-18 -23 0
-4 -9 0
-4 -14 0
-4 -19 0
-4 -24 0
-9 -14 0
-9 -19 0
-9 -24 0
-14 -19 0
-14 -24 0
-19 -24 0
-5 -10 0
-5 -15 0
-5 -20 0
-5 -25 0
-10 -15 0
-10 -20 0
-10 -25 0
-15 -20 0
-15 -25 0
-20 -25 0
26 27 28 29 30 0
31 32 33 34 35 0
36 37 38 39 40 0
41 42 43 44 45 0
46 47 48 49 50 0
-26 -27 0
-26 -28 0
-26 -29 0
-26 -30 0
-27 -28 0
-27 -29 0
-27 -30 0
-28 -29 0
-28 -30 0
-29 -30 0
-31 -32 0
-31 -33 0
-31 -34 0
-31 -35 0
-32 -33 0
-32 -34 0
-32 -35 0
-33 -34 0
-33 -35 0
-34 -35 0
-36 -37 0
-36 -38 0
-36 -39 0
-36 -40 0
-37 -38 0
-37 -39 0
-37 -40 0
-38 -39 0
-38 -40 0
-39 -40 0
-41 -42 0
-41 -43 0
-41 -44 0
-41 -45 0
-42 -43 0
-42 -44 0
-42 -45 0
-43 -44 0
-43 -45 0
-44 -45 0
-46 -47 0
-46 -48 0
-46 -49 0
-46 -50 0
-47 -48 0
-47 -49 0
-47 -50 0
-48 -49 0
-48 -50 0
-49 -50 0
26 31 36 41 46 0
27 32 37 42 47 0
28 33 38 43 48 0
29 34 39 44 49 0
30 35 40 45 50 0
-26 -31 0
-26 -36 0
-26 -41 0
-26 -46 0
-31 -36 0
-31 -41 0
-31 -46 0
-36 -41 0
-36 -46 0
-41 -46 0
-27 -32 0
-27 -37 0
-27 -42 0
-27 -47 0
-32 -37 0
-32 -42 0
-32 -47 0
-37 -42 0
-37 -47 0
-42 -47 0
-28 -33 0
-28 -38 0
-28 -43 0
-28 -48 0
-33 -38 0
-33 -43 0
-33 -48 0
-38 -43 0
-38 -48 0
-43 -48 0
-29 -34 0
-29 -39 0
-29 -44 0
-29 -49 0
-34 -39 0
-34 -44 0
-34 -49 0
-39 -44 0
-39 -49 0
-44 -49 0
-30 -35 0
-30 -40 0
-30 -45 0
-30 -50 0
-35 -40 0
-35 -45 0
-35 -50 0
-40 -45 0
-40 -50 0
-45 -50 0
51 52 53 54 55 0
56 57 58 59 60 0
61 62 63 64 65 0
66 67 68 69 70 0
71 72 73 74 75 0
-51 -52 0
-51 -53 0
-51 -54 0
-51 -55 0
-52 -53 0
-52 -54 0
-52 -55 0
-53 -54 0
-53 -55 0
-54 -55 0
-56 -57 0
-56 -58 0
-56 -59 0
-56 -60 0
-57 -58 0
-57 -59 0
-57 -60 0
-58 -59 0
-58 -60 0
-59 -60 0
-61 -62 0
-61 -63 0
-61 -64 0
-61 -65 0
-62 -63 0
-62 -64 0
-62 -65 0
-63 -64 0
-63 -65 0
-64 -65 0
-66 -67 0
-66 -68 0
-66 -69 0
-66 -70 0
-67 -68 0
-67 -69 0
-67 -70 0
-68 -69 0
-68 -70 0
-69 -70 0
-71 -72 0
-71 -73 0
-71 -74 0
-71 -75 0
-72 -73 0
-72 -74 0
-72 -75 0
-73 -74 0
-73 -75 0
-74 -75 0
51 56 61 66 71 0
52 57 62 67 72 0
53 58 63 68 73 0
54 59 64 69 74 0
55 60 65 70 75 0
-51 -56 0
-51 -61 0
-51 -66 0
-51 -71 0
-56 -61 0
-56 -66 0
-56 -71 0
-61 -66 0
-61 -71 0
-66 -71 0
-52 -57 0
-52 -62 0
-52 -67 0
-52 -72 0
-57 -62 0
-57 -67 0
-57 -72 0
-62 -67 0
-62 -72 0
-67 -72 0
-53 -58 0
-53 -63 0
-53 -68 0
-53 -73 0
-58 -63 0
-58 -68 0
-58 -73 0
-63 -68 0
-63 -73 0
-68 -73 0
-54 -59 0
-54 -64 0
-54 -69 0
-54 -74 0
-59 -64 0
-59 -69 0
-59 -74 0
-64 -69 0
-64 -74 0
-69 -74 0
-55 -60 0
-55 -65 0
-55 -70 0
-55 -75 0
-60 -65 0
-60 -70 0
-60 -75 0
-65 -70 0
-65 -75 0
-70 -75 0
76 77 78 79 80 0
81 82 83 84 85 0
86 87 88 89 90 0
91 92 93 94 95 0
96 97 98 99 100 0
-76 -77 0
-76 -78 0
-76 -79 0
-76 -80 0
-77 -78 0
-77 -79 0
-77 -80 0
-78 -79 0
-78 -80 0
-79 -80 0
-81 -82 0
-81 -83 0
-81 -84 0
-81 -85 0
-82 -83 0
-82 -84 0
-82 -85 0
-83 -84 0
-83 -85 0
-84 -85 0
-86 -87 0
-86 -88 0
-86 -89 0
-86 -90 0
-87 -88 0
-87 -89 0
-87 -90 0
-88 -89 0
-88 -90 0
-89 -90 0
-91 -92 0
-91 -93 0
-91 -94 0
-91 -95 0
-92 -93 0
-92 -94 0
-92 -95 0
-93 -94 0
-93 -95 0
-94 -95 0
-96 -97 0
-96 -98 0
-96 -99 0
-96 -100 0
-97 -98 0
-97 -99 0
-97 -100 0
-98 -99 0
-98 -100 0
-99 -100 0
76 81 86 91 96 0
77 82 87 92 97 0
78 83 88 93 98 0
79 84 89 94 99 0
80 85 90 95 100 0
-76 -81 0
-76 -86 0
-76 -91 0
-76 -96 0
-81 -86 0
-81 -91 0
-81 -96 0
-86 -91 0
-86 -96 0
-91 -96 0
-77 -82 0
-77 -87 0
-77 -92 0
-77 -97 0
-82 -87 0
-82 -92 0
-82 -97 0
-87 -92 0
-87 -97 0
-92 -97 0
-78 -83 0
-78 -88 0
-78 -93 0
-78 -98 0
-83 -88 0
-83 -93 0
-83 -98 0
-88 -93 0
-88 -98 0
-93 -98 0
-79 -84 0
-79 -89 0
-79 -94 0
-79 -99 0
-84 -89 0
-84 -94 0
-84 -99 0
-89 -94 0
-89 -99 0
-94 -99 0
-80 -85 0
-80 -90 0
-80 -95 0
-80 -100 0
-85 -90 0
-85 -95 0
-85 -100 0
-90 -95 0
-90 -100 0
-95 -100 0
101 102 103 104 105 0
106 107 108 109 110 0
111 112 113 114 115 0
116 117 118 119 120 0
121 122 123 124 125 0
-101 -102 0
-101 -103 0
-101 -104 0
-101 -105 0
-102 -103 0
-102 -104 0
-102 -105 0
-103 -104 0
-103 -105 0
-104 -105 0
-106 -107 0
-106 -108 0
-106 -109 0
-106 -110 0
-107 -108 0
-107 -109 0
-107 -110 0
-108 -109 0
-108 -110 0
-109 -110 0
-111 -112 0
-111 -113 0
-111 -114 0
-111 -115 0
-112 -113 0
-112 -114 0
-112 -115 0
-113 -114 0
-113 -115 0
-114 -115 0
-116 -117 0
-116 -118 0
-116 -119 0
-116 -120 0
-117 -118 0
-117 -119 0
-117 -120 0
-118 -119 0
-118 -120 0
-119 -120 0
-121 -122 0
-121 -123 0
-121 -124 0
-121 -125 0
-122 -123 0
-122 -124 0
-122 -125 0
-123 -124 0
-123 -125 0
-124 -125 0
101 106 111 116 121 0
102 107 112 117 122 0
103 108 113 118 123 0
104 109 114 119 124 0
105 110 115 120 125 0
-101 -106 0
-101 -111 0
-101 -116 0
-101 -121 0
-106 -111 0
-106 -116 0
-106 -121 0
-111 -116 0
-111 -121 0
-116 -121 0
-102 -107 0
-102 -112 0
-102 -117 0
-102 -122 0
-107 -112 0
-107 -117 0
-107 -122 0
-112 -117 0
-112 -122 0
-117 -122 0
-103 -108 0
-103 -113 0
-103 -118 0
-103 -123 0
-108 -113 0
-108 -118 0
-108 -123 0
-113 -118 0
-113 -123 0
-118 -123 0
-104 -109 0
-104 -114 0
-104 -119 0
-104 -124 0
-109 -114 0
-109 -119 0
-109 -124 0
-114 -119 0
-114 -124 0
-119 -124 0
-105 -110 0
-105 -115 0
-105 -120 0
-105 -125 0
-110 -115 0
-110 -120 0
-110 -125 0
-115 -120 0
-115 -125 0
-120 -125 0
-1 28 0
-2 33 0
-3 38 0
-4 43 0
-5 48 0
73 0
84 0
-27 34 0
-32 39 0
-37 44 0
-42 49 0
-29 0
-27 0
-27 -1 77 0
-32 -2 77 0
-37 -3 77 0
-42 -4 77 0
-47 -5 77 0
-27 -6 82 0
-32 -7 82 0
-37 -8 82 0
-42 -9 82 0
-47 -10 82 0
-27 -11 87 0
-32 -12 87 0
-37 -13 87 0
-42 -14 87 0
-47 -15 87 0
-27 -16 92 0
-32 -17 92 0
-37 -18 92 0
-42 -19 92 0
-47 -20 92 0
-27 -21 97 0
-32 -22 97 0
-37 -23 97 0
-42 -24 97 0
-47 -25 97 0
-51 104 0
-56 109 0
-61 114 0
-66 119 0
-71 124 0
-30 -1 103 0
-35 -2 103 0
-40 -3 103 0
-45 -4 103 0
-50 -5 103 0
-30 -6 108 0
-35 -7 108 0
-40 -8 108 0
-45 -9 108 0
-50 -10 108 0
-30 -11 113 0
-35 -12 113 0
-40 -13 113 0
-45 -14 113 0
-50 -15 113 0
-30 -16 118 0
-35 -17 118 0
-40 -18 118 0
-45 -19 118 0
-50 -20 118 0
-30 -21 123 0
-35 -22 123 0
-40 -23 123 0
-45 -24 123 0
-50 -25 123 0
-3 78 0
-8 83 0
-13 88 0
-18 93 0
-23 98 0
16 0
-1 -101 -52 2 0
-1 -101 -57 7 0
-1 -101 -62 12 0
-1 -101 -67 17 0
-1 -101 -72 22 0
-6 -106 -52 2 0
-6 -106 -57 7 0
-6 -106 -62 12 0
-6 -106 -67 17 0
-6 -106 -72 22 0
-11 -111 -52 2 0
-11 -111 -57 7 0
-11 -111 -62 12 0
-11 -111 -67 17 0
-11 -111 -72 22 0
-16 -116 -52 2 0
-16 -116 -57 7 0
-16 -116 -62 12 0
-16 -116 -67 17 0
-16 -116 -72 22 0
-21 -121 -52 2 0
-21 -121 -57 7 0
-21 -121 -62 12 0
-21 -121 -67 17 0
-21 -121 -72 22 0
-2 -101 -52 1 3 0
-2 -101 -57 6 8 0
-2 -101 -62 11 13 0
-2 -101 -67 16 18 0
-2 -101 -72 21 23 0
-7 -106 -52 1 3 0
-7 -106 -57 6 8 0
-7 -106 -62 11 13 0
-7 -106 -67 16 18 0
-7 -106 -72 21 23 0
-12 -111 -52 1 3 0
-12 -111 -57 6 8 0
-12 -111 -62 11 13 0
-12 -111 -67 16 18 0
-12 -111 -72 21 23 0
-17 -116 -52 1 3 0
-17 -116 -57 6 8 0
-17 -116 -62 11 13 0
-17 -116 -67 16 18 0
-17 -116 -72 21 23 0
-22 -121 -52 1 3 0
-22 -121 -57 6 8 0
-22 -121 -62 11 13 0
-22 -121 -67 16 18 0
-22 -121 -72 21 23 0
-3 -101 -52 2 4 0
-3 -101 -57 7 9 0
-3 -101 -62 12 14 0
-3 -101 -67 17 19 0
-3 -101 -72 22 24 0
-8 -106 -52 2 4 0
-8 -106 -57 7 9 0
-8 -106 -62 12 14 0
-8 -106 -67 17 19 0
-8 -106 -72 22 24 0
-13 -111 -52 2 4 0
-13 -111 -57 7 9 0
-13 -111 -62 12 14 0
-13 -111 -67 17 19 0
-13 -111 -72 22 24 0
-18 -116 -52 2 4 0
-18 -116 -57 7 9 0
-18 -116 -62 12 14 0
-18 -116 -67 17 19 0
-18 -116 -72 22 24 0
-23 -121 -52 2 4 0
-23 -121 -57 7 9 0
-23 -121 -62 12 14 0
-23 -121 -67 17 19 0
-23 -121 -72 22 24 0
-4 -101 -52 3 5 0
-4 -101 -57 8 10 0
-4 -101 -62 13 15 0
-4 -101 -67 18 20 0
-4 -101 -72 23 25 0
-9 -106 -52 3 5 0
-9 -106 -57 8 10 0
-9 -106 -62 13 15 0
-9 -106 -67 18 20 0
-9 -106 -72 23 25 0
-14 -111 -52 3 5 0
-14 -111 -57 8 10 0
-14 -111 -62 13 15 0
-14 -111 -67 18 20 0
-14 -111 -72 23 25 0
-19 -116 -52 3 5 0
-19 -116 -57 8 10 0
-19 -116 -62 13 15 0
-19 -116 -67 18 20 0
-19 -116 -72 23 25 0
-24 -121 -52 3 5 0
-24 -121 -57 8 10 0
-24 -121 -62 13 15 0
-24 -121 -67 18 20 0
-24 -121 -72 23 25 0
-5 -101 -52 4 0
-5 -101 -57 9 0
-5 -101 -62 14 0
-5 -101 -67 19 0
-5 -101 -72 24 0
-10 -106 -52 4 0
-10 -106 -57 9 0
-10 -106 -62 14 0
-10 -106 -67 19 0
-10 -106 -72 24 0
-15 -111 -52 4 0
-15 -111 -57 9 0
-15 -111 -62 14 0
-15 -111 -67 19 0
-15 -111 -72 24 0
-20 -116 -52 4 0
-20 -116 -57 9 0
-20 -116 -62 14 0
-20 -116 -67 19 0
-20 -116 -72 24 0
-25 -121 -52 4 0
-25 -121 -57 9 0
-25 -121 -62 14 0
-25 -121 -67 19 0
-25 -121 -72 24 0
-1 -55 -103 2 0
-1 -55 -108 7 0
-1 -55 -113 12 0
-1 -55 -118 17 0
-1 -55 -123 22 0
-6 -60 -103 2 0
-6 -60 -108 7 0
-6 -60 -113 12 0
-6 -60 -118 17 0
-6 -60 -123 22 0
-11 -65 -103 2 0
-11 -65 -108 7 0
-11 -65 -113 12 0
-11 -65 -118 17 0
-11 -65 -123 22 0
-16 -70 -103 2 0
-16 -70 -108 7 0
-16 -70 -113 12 0
-16 -70 -118 17 0
-16 -70 -123 22 0
-21 -75 -103 2 0
-21 -75 -108 7 0
-21 -75 -113 12 0
-21 -75 -118 17 0
-21 -75 -123 22 0
-2 -55 -103 1 3 0
-2 -55 -108 6 8 0
-2 -55 -113 11 13 0
-2 -55 -118 16 18 0
-2 -55 -123 21 23 0
-7 -60 -103 1 3 0
-7 -60 -108 6 8 0
-7 -60 -113 11 13 0
-7 -60 -118 16 18 0
-7 -60 -123 21 23 0
-12 -65 -103 1 3 0
-12 -65 -108 6 8 0
-12 -65 -113 11 13 0
-12 -65 -118 16 18 0
-12 -65 -123 21 23 0
-17 -70 -103 1 3 0
-17 -70 -108 6 8 0
-17 -70 -113 11 13 0
-17 -70 -118 16 18 0
-17 -70 -123 21 23 0
-22 -75 -103 1 3 0
-22 -75 -108 6 8 0
-22 -75 -113 11 13 0
-22 -75 -118 16 18 0
-22 -75 -123 21 23 0
-3 -55 -103 2 4 0
-3 -55 -108 7 9 0
-3 -55 -113 12 14 0
-3 -55 -118 17 19 0
-3 -55 -123 22 24 0
-8 -60 -103 2 4 0
-8 -60 -108 7 9 0
-8 -60 -113 12 14 0
-8 -60 -118 17 19 0
-8 -60 -123 22 24 0
-13 -65 -103 2 4 0
-13 -65 -108 7 9 0
-13 -65 -113 12 14 0
-13 -65 -118 17 19 0
-13 -65 -123 22 24 0
-18 -70 -103 2 4 0
-18 -70 -108 7 9 0
-18 -70 -113 12 14 0
-18 -70 -118 17 19 0
-18 -70 -123 22 24 0
-23 -75 -103 2 4 0
-23 -75 -108 7 9 0
-23 -75 -113 12 14 0
-23 -75 -118 17 19 0
-23 -75 -123 22 24 0
-4 -55 -103 3 5 0
-4 -55 -108 8 10 0
-4 -55 -113 13 15 0
-4 -55 -118 18 20 0
-4 -55 -123 23 25 0
-9 -60 -103 3 5 0
-9 -60 -108 8 10 0
-9 -60 -113 13 15 0
-9 -60 -118 18 20 0
-9 -60 -123 23 25 0
-14 -65 -103 3 5 0
-14 -65 -108 8 10 0
-14 -65 -113 13 15 0
-14 -65 -118 18 20 0
-14 -65 -123 23 25 0
-19 -70 -103 3 5 0
-19 -70 -108 8 10 0
-19 -70 -113 13 15 0
-19 -70 -118 18 20 0
-19 -70 -123 23 25 0
-24 -75 -103 3 5 0
-24 -75 -108 8 10 0
-24 -75 -113 13 15 0
-24 -75 -118 18 20 0
-24 -75 -123 23 25 0
-5 -55 -103 4 0
-5 -55 -108 9 0
-5 -55 -113 14 0
-5 -55 -118 19 0
-5 -55 -123 24 0
-10 -60 -103 4 0
-10 -60 -108 9 0
-10 -60 -113 14 0
-10 -60 -118 19 0
-10 -60 -123 24 0
-15 -65 -103 4 0
-15 -65 -108 9 0
-15 -65 -113 14 0
-15 -65 -118 19 0
-15 -65 -123 24 0
-20 -70 -103 4 0
-20 -70 -108 9 0
-20 -70 -113 14 0
-20 -70 -118 19 0
-20 -70 -123 24 0
-25 -75 -103 4 0
-25 -75 -108 9 0
-25 -75 -113 14 0
-25 -75 -118 19 0
-25 -75 -123 24 0
-102 76 0
-107 81 0
-112 86 0
-117 91 0
-122 96 0
115 0
74 0
